p cnf 7230 17
-295 -3168 3321 0
-301 -3204 -3326 0
-299 -3206 -3324 0
-297 -3172 -3322 0
301 -3327 0
299 -3325 0
297 -3323 0
3326 3327 0
3324 3325 0
3322 3323 0
3204 -3327 0
3206 -3325 0
3172 -3323 0
-2730 3329 0
2730 -3329 0
-3320 -3321 0
3320 3321 0
